NAME /Users/henri/Research/solvers/instances/idol-instances/robust/collection/cbp_Subramanyam_et_al_2020/CapBud_N30_2/models/uncertain_technology_matrix/
ROWS
 N  OBJ
 L  capacity
 L  c_5255
 L  c_5256
 L  c_5257
 L  c_5258
 L  c_5259
 L  c_5260
 L  c_5261
 L  c_5262
 L  c_5263
 L  c_5264
 L  c_5265
 L  c_5266
 L  c_5267
 L  c_5268
 L  c_5269
 L  c_5270
 L  c_5271
 L  c_5272
 L  c_5273
 L  c_5274
 L  c_5275
 L  c_5276
 L  c_5277
 L  c_5278
 L  c_5279
 L  c_5280
 L  c_5281
 L  c_5282
 L  c_5283
 L  c_5284
COLUMNS
    MARKER    'MARKER'                 'INTORG'
    x_0        OBJ        9.82511
    x_0        c_5255     1
    x_0        capacity   1.96502
    x_1        OBJ        9.10423
    x_1        c_5256     1
    x_1        capacity   1.82085
    x_2        OBJ        4.34577
    x_2        c_5257     1
    x_2        capacity   0.869154
    x_3        OBJ        6.38841
    x_3        c_5258     1
    x_3        capacity   1.27768
    x_4        OBJ        4.76541
    x_4        c_5259     1
    x_4        capacity   0.953081
    x_5        OBJ        1.84102
    x_5        c_5260     1
    x_5        capacity   0.368204
    x_6        OBJ        0.90175
    x_6        c_5261     1
    x_6        capacity   0.18035
    x_7        OBJ        3.53731
    x_7        c_5262     1
    x_7        capacity   0.707462
    x_8        OBJ        8.71839
    x_8        c_5263     1
    x_8        capacity   1.74368
    x_9        OBJ        5.61666
    x_9        c_5264     1
    x_9        capacity   1.12333
    x_10       OBJ        1.78139
    x_10       c_5265     1
    x_10       capacity   0.356278
    x_11       OBJ        5.70019
    x_11       c_5266     1
    x_11       capacity   1.14004
    x_12       OBJ        3.89727
    x_12       c_5267     1
    x_12       capacity   0.779454
    x_13       OBJ        6.04686
    x_13       c_5268     1
    x_13       capacity   1.20937
    x_14       OBJ        5.77274
    x_14       c_5269     1
    x_14       capacity   1.15455
    x_15       OBJ        0.778923
    x_15       c_5270     1
    x_15       capacity   0.155785
    x_16       OBJ        1.3902
    x_16       c_5271     1
    x_16       capacity   0.278039
    x_17       OBJ        9.86148
    x_17       c_5272     1
    x_17       capacity   1.9723
    x_18       OBJ        4.27137
    x_18       c_5273     1
    x_18       capacity   0.854275
    x_19       OBJ        1.18796
    x_19       c_5274     1
    x_19       capacity   0.237593
    x_20       OBJ        0.778217
    x_20       c_5275     1
    x_20       capacity   0.155643
    x_21       OBJ        3.38249
    x_21       c_5276     1
    x_21       capacity   0.676498
    x_22       OBJ        5.12909
    x_22       c_5277     1
    x_22       capacity   1.02582
    x_23       OBJ        7.99277
    x_23       c_5278     1
    x_23       capacity   1.59855
    x_24       OBJ        1.81646
    x_24       c_5279     1
    x_24       capacity   0.363292
    x_25       OBJ        1.54207
    x_25       c_5280     1
    x_25       capacity   0.308413
    x_26       OBJ        5.26196
    x_26       c_5281     1
    x_26       capacity   1.05239
    x_27       OBJ        1.49205
    x_27       c_5282     1
    x_27       capacity   0.29841
    x_28       OBJ        6.97118
    x_28       c_5283     1
    x_28       capacity   1.39424
    x_29       OBJ        1.39466
    x_29       c_5284     1
    x_29       capacity   0.278932
    y_0        OBJ        7.86008
    y_0        c_5255     1
    y_0        capacity   1.96502
    y_1        OBJ        7.28339
    y_1        c_5256     1
    y_1        capacity   1.82085
    y_2        OBJ        3.47662
    y_2        c_5257     1
    y_2        capacity   0.869154
    y_3        OBJ        5.11073
    y_3        c_5258     1
    y_3        capacity   1.27768
    y_4        OBJ        3.81233
    y_4        c_5259     1
    y_4        capacity   0.953081
    y_5        OBJ        1.47281
    y_5        c_5260     1
    y_5        capacity   0.368204
    y_6        OBJ        0.7214
    y_6        c_5261     1
    y_6        capacity   0.18035
    y_7        OBJ        2.82985
    y_7        c_5262     1
    y_7        capacity   0.707462
    y_8        OBJ        6.97471
    y_8        c_5263     1
    y_8        capacity   1.74368
    y_9        OBJ        4.49333
    y_9        c_5264     1
    y_9        capacity   1.12333
    y_10       OBJ        1.42511
    y_10       c_5265     1
    y_10       capacity   0.356278
    y_11       OBJ        4.56016
    y_11       c_5266     1
    y_11       capacity   1.14004
    y_12       OBJ        3.11781
    y_12       c_5267     1
    y_12       capacity   0.779454
    y_13       OBJ        4.83749
    y_13       c_5268     1
    y_13       capacity   1.20937
    y_14       OBJ        4.61819
    y_14       c_5269     1
    y_14       capacity   1.15455
    y_15       OBJ        0.623138
    y_15       c_5270     1
    y_15       capacity   0.155785
    y_16       OBJ        1.11216
    y_16       c_5271     1
    y_16       capacity   0.278039
    y_17       OBJ        7.88918
    y_17       c_5272     1
    y_17       capacity   1.9723
    y_18       OBJ        3.4171
    y_18       c_5273     1
    y_18       capacity   0.854275
    y_19       OBJ        0.95037
    y_19       c_5274     1
    y_19       capacity   0.237593
    y_20       OBJ        0.622574
    y_20       c_5275     1
    y_20       capacity   0.155643
    y_21       OBJ        2.70599
    y_21       c_5276     1
    y_21       capacity   0.676498
    y_22       OBJ        4.10327
    y_22       c_5277     1
    y_22       capacity   1.02582
    y_23       OBJ        6.39421
    y_23       c_5278     1
    y_23       capacity   1.59855
    y_24       OBJ        1.45317
    y_24       c_5279     1
    y_24       capacity   0.363292
    y_25       OBJ        1.23365
    y_25       c_5280     1
    y_25       capacity   0.308413
    y_26       OBJ        4.20957
    y_26       c_5281     1
    y_26       capacity   1.05239
    y_27       OBJ        1.19364
    y_27       c_5282     1
    y_27       capacity   0.29841
    y_28       OBJ        5.57694
    y_28       c_5283     1
    y_28       capacity   1.39424
    y_29       OBJ        1.11573
    y_29       c_5284     1
    y_29       capacity   0.278932
    MARKER    'MARKER'                 'INTEND'
RHS
    RHS       capacity   65.7467
    RHS       c_5255     1
    RHS       c_5256     1
    RHS       c_5257     1
    RHS       c_5258     1
    RHS       c_5259     1
    RHS       c_5260     1
    RHS       c_5261     1
    RHS       c_5262     1
    RHS       c_5263     1
    RHS       c_5264     1
    RHS       c_5265     1
    RHS       c_5266     1
    RHS       c_5267     1
    RHS       c_5268     1
    RHS       c_5269     1
    RHS       c_5270     1
    RHS       c_5271     1
    RHS       c_5272     1
    RHS       c_5273     1
    RHS       c_5274     1
    RHS       c_5275     1
    RHS       c_5276     1
    RHS       c_5277     1
    RHS       c_5278     1
    RHS       c_5279     1
    RHS       c_5280     1
    RHS       c_5281     1
    RHS       c_5282     1
    RHS       c_5283     1
    RHS       c_5284     1
BOUNDS
 LI BND       x_0        0
 UI BND       x_0        1
 LI BND       x_1        0
 UI BND       x_1        1
 LI BND       x_2        0
 UI BND       x_2        1
 LI BND       x_3        0
 UI BND       x_3        1
 LI BND       x_4        0
 UI BND       x_4        1
 LI BND       x_5        0
 UI BND       x_5        1
 LI BND       x_6        0
 UI BND       x_6        1
 LI BND       x_7        0
 UI BND       x_7        1
 LI BND       x_8        0
 UI BND       x_8        1
 LI BND       x_9        0
 UI BND       x_9        1
 LI BND       x_10       0
 UI BND       x_10       1
 LI BND       x_11       0
 UI BND       x_11       1
 LI BND       x_12       0
 UI BND       x_12       1
 LI BND       x_13       0
 UI BND       x_13       1
 LI BND       x_14       0
 UI BND       x_14       1
 LI BND       x_15       0
 UI BND       x_15       1
 LI BND       x_16       0
 UI BND       x_16       1
 LI BND       x_17       0
 UI BND       x_17       1
 LI BND       x_18       0
 UI BND       x_18       1
 LI BND       x_19       0
 UI BND       x_19       1
 LI BND       x_20       0
 UI BND       x_20       1
 LI BND       x_21       0
 UI BND       x_21       1
 LI BND       x_22       0
 UI BND       x_22       1
 LI BND       x_23       0
 UI BND       x_23       1
 LI BND       x_24       0
 UI BND       x_24       1
 LI BND       x_25       0
 UI BND       x_25       1
 LI BND       x_26       0
 UI BND       x_26       1
 LI BND       x_27       0
 UI BND       x_27       1
 LI BND       x_28       0
 UI BND       x_28       1
 LI BND       x_29       0
 UI BND       x_29       1
 LI BND       y_0        0
 UI BND       y_0        1
 LI BND       y_1        0
 UI BND       y_1        1
 LI BND       y_2        0
 UI BND       y_2        1
 LI BND       y_3        0
 UI BND       y_3        1
 LI BND       y_4        0
 UI BND       y_4        1
 LI BND       y_5        0
 UI BND       y_5        1
 LI BND       y_6        0
 UI BND       y_6        1
 LI BND       y_7        0
 UI BND       y_7        1
 LI BND       y_8        0
 UI BND       y_8        1
 LI BND       y_9        0
 UI BND       y_9        1
 LI BND       y_10       0
 UI BND       y_10       1
 LI BND       y_11       0
 UI BND       y_11       1
 LI BND       y_12       0
 UI BND       y_12       1
 LI BND       y_13       0
 UI BND       y_13       1
 LI BND       y_14       0
 UI BND       y_14       1
 LI BND       y_15       0
 UI BND       y_15       1
 LI BND       y_16       0
 UI BND       y_16       1
 LI BND       y_17       0
 UI BND       y_17       1
 LI BND       y_18       0
 UI BND       y_18       1
 LI BND       y_19       0
 UI BND       y_19       1
 LI BND       y_20       0
 UI BND       y_20       1
 LI BND       y_21       0
 UI BND       y_21       1
 LI BND       y_22       0
 UI BND       y_22       1
 LI BND       y_23       0
 UI BND       y_23       1
 LI BND       y_24       0
 UI BND       y_24       1
 LI BND       y_25       0
 UI BND       y_25       1
 LI BND       y_26       0
 UI BND       y_26       1
 LI BND       y_27       0
 UI BND       y_27       1
 LI BND       y_28       0
 UI BND       y_28       1
 LI BND       y_29       0
 UI BND       y_29       1
ENDATA
